\ Model qcp
\ LP format - for model browsing. Use MPS format to capture full model detail.
Minimize
  3.675456100910635 C0 + 6.934012166984203 C1
Subject To
 R0: C2 - 3.458008195664841 C3 - 2.829427812761796 C4 >= 0
 R1: - 1.15490334712611 C3 + 2.490572121265071 C4 >= 0
 R2: 2.848366083331638 C3 + 0.2224004668076035 C4 >= 0
 qc0: 2.848366083331638 C3 + 0.2224004668076035 C4 + [
   - 1.693462736205528 C0 * C3 - 2.712972588072674 C0 * C4 ] = 0
 qc1: 1.316249254604823 C3 + 3.608739483320258 C4 + [
   - 5.628361600111158 C1 * C3 - 4.89517192599723 C1 * C4 ] = 0
 norm: [ C2 ^2 + C3 ^2 + C4 ^2 ] = 1
Bounds
 C0 <= 1
 C1 <= 1
 -0.999 <= C2 <= 0.999
 -0.999 <= C3 <= 0.999
 -0.999 <= C4 <= 0.999
End
